DIMACS_lns/graph-1000-736.col
p edge 1000 1816
e 1 349
e 1 324
e 1 688
e 1 481
e 1 409
e 1 57
e 1 553
e 1 397
e 1 21
e 1 87
e 2 865
e 2 578
e 2 950
e 2 64
e 2 496
e 2 323
e 2 258
e 3 871
e 3 209
e 3 957
e 3 429
e 4 463
e 4 448
e 4 168
e 5 209
e 5 139
e 5 801
e 5 773
e 6 863
e 6 780
e 6 158
e 6 592
e 6 599
e 6 939
e 8 948
e 8 630
e 8 647
e 8 38
e 8 900
e 10 319
e 10 433
e 10 73
e 10 597
e 10 291
e 10 536
e 10 807
e 12 943
e 12 814
e 12 639
e 12 202
e 13 332
e 13 635
e 13 640
e 13 371
e 13 736
e 13 726
e 13 150
e 14 219
e 14 303
e 14 663
e 14 444
e 14 505
e 15 993
e 15 552
e 15 873
e 15 374
e 16 477
e 16 166
e 16 277
e 16 595
e 16 255
e 16 737
e 17 569
e 17 655
e 17 302
e 17 143
e 17 171
e 17 298
e 18 940
e 18 197
e 18 558
e 18 747
e 18 357
e 20 824
e 20 899
e 20 476
e 20 561
e 20 905
e 20 451
e 21 533
e 21 206
e 21 83
e 21 912
e 21 370
e 22 212
e 22 261
e 22 357
e 22 175
e 24 707
e 24 780
e 24 431
e 24 873
e 24 233
e 24 828
e 25 901
e 25 376
e 25 565
e 26 573
e 26 992
e 26 743
e 26 200
e 28 191
e 28 664
e 28 989
e 33 958
e 33 516
e 33 669
e 35 190
e 35 759
e 35 912
e 35 158
e 36 219
e 36 529
e 36 831
e 37 117
e 37 838
e 37 608
e 37 992
e 37 721
e 37 537
e 38 563
e 38 391
e 38 369
e 38 703
e 38 205
e 39 230
e 39 670
e 39 802
e 39 984
e 39 551
e 39 515
e 39 677
e 41 891
e 41 136
e 41 229
e 41 503
e 42 331
e 42 787
e 42 722
e 43 797
e 43 216
e 43 134
e 43 472
e 44 731
e 44 920
e 44 911
e 44 569
e 44 480
e 45 667
e 45 302
e 45 391
e 46 824
e 46 736
e 46 171
e 46 721
e 47 767
e 47 324
e 47 770
e 47 976
e 47 823
e 49 485
e 49 776
e 49 378
e 51 602
e 51 289
e 51 168
e 51 770
e 51 655
e 51 977
e 53 76
e 53 388
e 53 491
e 53 355
e 53 731
e 53 676
e 53 790
e 55 407
e 55 923
e 55 70
e 55 355
e 56 361
e 56 891
e 56 531
e 57 914
e 57 984
e 57 289
e 57 566
e 57 87
e 57 191
e 61 74
e 61 762
e 61 913
e 62 668
e 62 456
e 62 168
e 62 65
e 62 503
e 62 785
e 62 929
e 63 178
e 63 542
e 63 850
e 63 980
e 63 615
e 64 277
e 64 327
e 64 674
e 64 241
e 64 521
e 64 346
e 65 474
e 65 897
e 66 102
e 66 624
e 66 714
e 66 863
e 68 167
e 68 367
e 68 89
e 69 201
e 69 814
e 69 738
e 70 806
e 70 897
e 70 948
e 71 86
e 71 363
e 71 219
e 71 548
e 72 596
e 72 307
e 72 724
e 72 324
e 73 654
e 73 672
e 73 756
e 74 571
e 74 498
e 74 269
e 76 790
e 76 762
e 76 180
e 76 633
e 76 227
e 78 862
e 78 847
e 78 363
e 78 257
e 79 366
e 79 231
e 79 443
e 79 113
e 79 228
e 79 154
e 80 758
e 80 244
e 80 920
e 80 268
e 81 715
e 81 693
e 81 195
e 82 301
e 82 735
e 82 515
e 82 479
e 82 613
e 83 729
e 83 946
e 83 847
e 85 634
e 85 529
e 85 230
e 86 364
e 86 206
e 87 258
e 87 443
e 87 411
e 87 998
e 87 676
e 88 475
e 88 401
e 88 318
e 88 722
e 88 509
e 89 565
e 89 300
e 89 698
e 92 527
e 92 843
e 92 700
e 93 540
e 93 731
e 93 109
e 93 229
e 93 95
e 94 707
e 94 464
e 94 749
e 95 765
e 95 717
e 95 492
e 95 342
e 95 996
e 96 975
e 96 586
e 96 155
e 96 364
e 97 579
e 97 616
e 97 664
e 98 800
e 98 544
e 98 354
e 98 515
e 99 522
e 99 631
e 99 302
e 101 502
e 101 851
e 101 967
e 102 207
e 102 544
e 103 301
e 103 472
e 103 773
e 103 638
e 104 198
e 104 119
e 104 952
e 106 332
e 106 231
e 106 882
e 106 204
e 106 134
e 106 407
e 107 839
e 107 511
e 107 358
e 107 610
e 107 861
e 107 274
e 109 872
e 109 731
e 109 807
e 109 154
e 110 368
e 110 320
e 110 340
e 110 555
e 111 872
e 111 200
e 111 746
e 111 592
e 112 987
e 112 131
e 112 181
e 113 149
e 113 842
e 113 277
e 117 353
e 117 197
e 117 898
e 117 981
e 117 903
e 117 933
e 119 471
e 119 948
e 119 845
e 119 472
e 120 833
e 120 837
e 120 388
e 121 947
e 121 807
e 121 717
e 121 242
e 121 390
e 121 946
e 121 749
e 121 624
e 122 178
e 122 332
e 122 987
e 122 981
e 123 831
e 123 635
e 123 448
e 128 671
e 128 926
e 128 468
e 128 739
e 131 391
e 131 794
e 131 562
e 131 912
e 131 798
e 134 996
e 134 553
e 134 751
e 134 827
e 135 775
e 135 960
e 135 635
e 135 588
e 135 179
e 136 290
e 136 864
e 136 643
e 136 916
e 136 430
e 136 556
e 136 319
e 137 233
e 137 684
e 137 781
e 138 242
e 138 403
e 138 334
e 139 311
e 139 411
e 142 700
e 142 539
e 142 891
e 142 617
e 143 232
e 143 696
e 143 158
e 143 884
e 143 675
e 143 406
e 143 615
e 144 674
e 144 661
e 144 757
e 144 930
e 145 738
e 145 842
e 145 351
e 145 274
e 146 352
e 146 922
e 146 566
e 146 591
e 146 894
e 146 690
e 147 367
e 147 345
e 147 746
e 148 811
e 148 166
e 148 712
e 148 266
e 149 386
e 149 166
e 149 622
e 150 259
e 150 524
e 150 223
e 153 350
e 153 977
e 153 989
e 153 969
e 153 729
e 154 207
e 154 653
e 154 591
e 155 822
e 155 970
e 155 491
e 156 753
e 156 851
e 156 716
e 156 522
e 157 652
e 157 496
e 157 442
e 158 989
e 160 193
e 160 783
e 160 670
e 160 581
e 161 183
e 161 340
e 161 301
e 163 176
e 163 850
e 163 511
e 165 489
e 165 251
e 165 459
e 165 189
e 166 457
e 166 277
e 167 239
e 167 716
e 167 801
e 167 842
e 168 670
e 168 478
e 168 266
e 168 757
e 170 446
e 170 815
e 170 471
e 171 232
e 171 934
e 171 819
e 171 212
e 172 709
e 172 759
e 172 206
e 172 813
e 175 804
e 175 758
e 175 682
e 175 864
e 176 444
e 176 492
e 176 645
e 177 276
e 177 993
e 177 390
e 178 709
e 178 981
e 179 844
e 179 199
e 179 417
e 179 915
e 180 557
e 180 380
e 180 751
e 180 275
e 180 562
e 180 220
e 181 640
e 181 764
e 181 315
e 181 380
e 183 413
e 183 540
e 183 845
e 183 364
e 183 439
e 183 593
e 185 239
e 185 661
e 185 363
e 186 278
e 186 256
e 186 315
e 186 796
e 186 393
e 187 451
e 187 403
e 187 961
e 189 405
e 189 208
e 190 874
e 190 512
e 190 213
e 190 639
e 191 194
e 191 574
e 191 356
e 191 437
e 191 824
e 191 678
e 191 598
e 192 865
e 192 553
e 192 753
e 192 682
e 192 225
e 193 949
e 193 268
e 193 733
e 194 615
e 194 263
e 194 537
e 194 781
e 195 953
e 195 896
e 195 798
e 197 580
e 197 916
e 197 805
e 197 963
e 197 640
e 198 726
e 198 836
e 198 638
e 199 870
e 199 201
e 200 460
e 200 369
e 200 833
e 201 806
e 201 516
e 201 699
e 202 518
e 202 886
e 202 205
e 202 307
e 204 867
e 204 486
e 204 265
e 205 690
e 205 434
e 205 925
e 205 579
e 205 695
e 205 268
e 206 586
e 206 473
e 207 462
e 207 446
e 207 331
e 207 813
e 207 553
e 208 941
e 208 767
e 208 901
e 208 987
e 208 269
e 209 947
e 209 351
e 209 264
e 209 400
e 209 698
e 210 507
e 210 420
e 210 662
e 210 267
e 210 376
e 211 372
e 211 267
e 211 374
e 211 835
e 212 681
e 213 555
e 213 635
e 215 924
e 215 443
e 215 539
e 215 573
e 216 476
e 216 577
e 216 940
e 216 255
e 216 926
e 216 622
e 216 533
e 217 631
e 217 722
e 217 894
e 217 423
e 217 947
e 218 862
e 218 300
e 218 987
e 218 581
e 219 610
e 220 444
e 220 560
e 220 529
e 220 298
e 220 933
e 221 512
e 221 855
e 221 860
e 221 833
e 221 952
e 221 672
e 223 770
e 223 546
e 223 356
e 223 392
e 224 338
e 224 412
e 224 783
e 224 885
e 225 861
e 225 598
e 227 585
e 227 544
e 227 683
e 227 509
e 228 846
e 228 250
e 228 483
e 229 579
e 230 778
e 230 974
e 231 277
e 231 530
e 231 372
e 232 771
e 232 369
e 232 672
e 232 428
e 232 306
e 233 458
e 233 356
e 233 850
e 233 635
e 235 926
e 235 989
e 235 830
e 236 250
e 236 505
e 236 896
e 236 512
e 237 978
e 237 814
e 237 940
e 237 357
e 237 378
e 238 282
e 238 898
e 238 368
e 238 871
e 238 771
e 239 509
e 239 525
e 239 978
e 239 643
e 239 976
e 240 364
e 240 726
e 240 822
e 240 916
e 240 533
e 240 754
e 240 786
e 241 884
e 241 838
e 241 577
e 242 870
e 242 788
e 242 704
e 242 437
e 243 511
e 243 556
e 243 323
e 243 897
e 243 531
e 243 302
e 244 475
e 244 354
e 244 320
e 244 970
e 245 430
e 245 325
e 245 516
e 245 615
e 249 872
e 249 669
e 249 616
e 249 495
e 249 860
e 250 899
e 250 519
e 250 272
e 250 823
e 250 636
e 250 502
e 251 592
e 251 588
e 254 878
e 254 260
e 254 376
e 254 328
e 255 742
e 255 617
e 255 801
e 255 662
e 255 487
e 256 424
e 256 925
e 256 999
e 256 433
e 257 805
e 257 258
e 257 409
e 257 596
e 258 811
e 258 314
e 259 306
e 259 712
e 259 272
e 260 428
e 260 519
e 261 900
e 261 512
e 261 597
e 261 812
e 262 673
e 262 521
e 262 497
e 262 290
e 263 766
e 263 350
e 263 702
e 264 589
e 264 289
e 264 815
e 265 837
e 265 903
e 265 831
e 266 495
e 266 478
e 266 895
e 267 885
e 267 447
e 267 591
e 267 829
e 267 827
e 267 471
e 268 733
e 268 355
e 268 940
e 268 683
e 269 507
e 269 802
e 269 989
e 269 831
e 270 963
e 270 659
e 270 333
e 270 885
e 270 472
e 270 831
e 270 288
e 272 683
e 272 503
e 272 800
e 273 976
e 273 974
e 273 525
e 273 552
e 274 924
e 274 328
e 274 960
e 275 945
e 275 333
e 275 624
e 275 537
e 275 458
e 276 361
e 276 772
e 277 625
e 277 729
e 277 406
e 278 697
e 278 301
e 278 523
e 280 466
e 280 294
e 280 561
e 282 766
e 282 631
e 282 461
e 282 400
e 283 403
e 283 371
e 283 596
e 285 678
e 285 323
e 285 976
e 285 978
e 285 838
e 285 351
e 286 885
e 286 880
e 286 525
e 287 779
e 287 671
e 287 497
e 288 300
e 288 950
e 288 506
e 289 853
e 289 562
e 289 524
e 289 595
e 290 343
e 290 768
e 290 634
e 290 831
e 290 485
e 291 436
e 291 676
e 291 294
e 291 515
e 291 892
e 291 636
e 293 910
e 293 869
e 293 791
e 293 586
e 293 692
e 293 591
e 294 378
e 295 476
e 295 654
e 295 352
e 295 567
e 295 779
e 296 528
e 296 351
e 296 660
e 296 336
e 298 837
e 298 525
e 300 359
e 301 782
e 303 936
e 303 797
e 305 491
e 305 772
e 305 971
e 305 711
e 305 722
e 305 878
e 305 337
e 306 631
e 306 544
e 307 842
e 308 582
e 308 503
e 308 360
e 308 898
e 308 791
e 309 377
e 309 694
e 309 869
e 309 947
e 309 872
e 311 595
e 311 738
e 311 765
e 314 523
e 314 516
e 315 604
e 315 442
e 318 358
e 318 547
e 318 683
e 319 486
e 319 455
e 319 602
e 320 970
e 320 374
e 320 948
e 320 512
e 323 585
e 323 495
e 323 709
e 323 896
e 324 542
e 324 957
e 325 754
e 325 941
e 325 798
e 327 500
e 327 872
e 327 637
e 327 352
e 328 933
e 328 909
e 329 849
e 329 514
e 329 560
e 331 967
e 331 445
e 331 706
e 332 776
e 332 562
e 332 742
e 332 436
e 332 828
e 333 670
e 333 943
e 333 353
e 333 459
e 333 508
e 333 924
e 334 873
e 334 867
e 334 697
e 335 367
e 335 836
e 335 487
e 335 791
e 335 468
e 335 559
e 336 731
e 336 490
e 336 791
e 337 831
e 337 753
e 338 472
e 338 785
e 338 354
e 340 800
e 340 886
e 340 366
e 340 374
e 340 677
e 342 616
e 342 489
e 342 663
e 343 883
e 343 920
e 343 505
e 344 947
e 344 958
e 344 571
e 345 474
e 345 766
e 345 471
e 345 622
e 345 494
e 346 786
e 346 969
e 349 932
e 349 558
e 349 792
e 349 600
e 349 459
e 350 779
e 350 922
e 350 436
e 351 653
e 351 481
e 352 409
e 353 645
e 354 751
e 354 464
e 356 521
e 356 906
e 356 514
e 357 688
e 358 809
e 358 573
e 358 652
e 359 780
e 359 388
e 360 868
e 360 939
e 360 829
e 361 478
e 361 792
e 363 624
e 364 368
e 364 492
e 366 377
e 366 801
e 366 403
e 367 544
e 367 672
e 367 398
e 368 909
e 370 796
e 370 779
e 370 595
e 370 745
e 370 737
e 371 690
e 371 797
e 371 884
e 371 389
e 372 521
e 372 490
e 373 445
e 373 776
e 373 910
e 374 662
e 374 392
e 374 801
e 374 941
e 376 762
e 376 898
e 376 915
e 377 497
e 377 707
e 377 850
e 377 855
e 377 838
e 377 848
e 377 782
e 377 681
e 378 989
e 378 418
e 378 774
e 378 528
e 378 620
e 378 929
e 380 567
e 380 579
e 380 503
e 382 716
e 382 895
e 382 459
e 382 862
e 383 397
e 383 836
e 383 417
e 383 479
e 383 438
e 384 966
e 384 961
e 384 562
e 385 589
e 385 409
e 385 920
e 386 873
e 386 650
e 386 421
e 388 848
e 388 798
e 389 390
e 389 737
e 390 872
e 390 971
e 390 518
e 390 836
e 390 945
e 391 418
e 391 405
e 392 698
e 392 874
e 392 565
e 392 587
e 393 436
e 393 871
e 397 880
e 397 580
e 397 658
e 397 411
e 398 452
e 398 873
e 400 567
e 401 554
e 401 811
e 401 602
e 403 926
e 403 881
e 403 544
e 403 658
e 403 633
e 405 525
e 405 710
e 406 770
e 406 791
e 406 451
e 407 769
e 409 594
e 409 420
e 409 706
e 409 969
e 410 811
e 410 623
e 410 809
e 410 899
e 410 675
e 410 602
e 411 494
e 411 920
e 411 977
e 411 678
e 412 892
e 412 587
e 412 939
e 413 782
e 413 452
e 413 579
e 417 867
e 417 915
e 417 481
e 417 751
e 417 688
e 418 487
e 418 806
e 420 811
e 421 895
e 421 740
e 421 757
e 422 806
e 422 553
e 422 452
e 423 601
e 423 591
e 423 790
e 423 973
e 424 904
e 424 980
e 425 747
e 425 651
e 425 880
e 425 670
e 425 946
e 428 770
e 429 502
e 429 932
e 429 486
e 430 434
e 430 667
e 430 749
e 430 610
e 431 730
e 431 689
e 433 692
e 433 670
e 434 585
e 434 702
e 434 736
e 434 711
e 434 439
e 434 897
e 435 554
e 435 595
e 435 598
e 436 929
e 436 777
e 437 458
e 437 483
e 437 953
e 438 460
e 438 774
e 439 668
e 439 442
e 439 768
e 439 796
e 439 692
e 442 936
e 442 683
e 443 746
e 443 966
e 443 478
e 443 551
e 444 869
e 444 561
e 445 577
e 445 661
e 445 897
e 445 788
e 446 675
e 446 598
e 446 815
e 446 837
e 446 453
e 446 625
e 446 668
e 446 742
e 447 667
e 447 827
e 448 735
e 449 910
e 449 485
e 449 561
e 451 593
e 452 639
e 453 599
e 453 985
e 455 891
e 455 623
e 455 599
e 456 678
e 456 659
e 456 922
e 456 891
e 457 600
e 457 584
e 458 664
e 459 695
e 460 822
e 460 604
e 460 851
e 460 985
e 460 541
e 461 600
e 461 943
e 461 556
e 461 670
e 461 682
e 462 913
e 462 474
e 463 933
e 463 862
e 463 558
e 464 655
e 464 651
e 464 896
e 466 481
e 466 739
e 466 863
e 468 508
e 471 768
e 471 850
e 472 669
e 473 745
e 473 779
e 473 478
e 473 828
e 474 647
e 474 599
e 475 596
e 477 911
e 477 557
e 477 805
e 478 782
e 478 658
e 478 819
e 478 542
e 479 545
e 479 565
e 479 930
e 480 780
e 480 563
e 481 877
e 483 918
e 483 846
e 483 662
e 483 969
e 485 853
e 485 638
e 487 653
e 487 851
e 487 771
e 487 732
e 487 788
e 489 847
e 489 591
e 489 978
e 490 578
e 490 731
e 490 666
e 491 724
e 491 678
e 494 743
e 494 518
e 494 848
e 494 845
e 494 633
e 495 918
e 496 863
e 496 747
e 497 705
e 498 559
e 498 868
e 498 747
e 498 740
e 500 669
e 500 967
e 500 670
e 502 827
e 503 531
e 505 919
e 505 641
e 506 842
e 506 650
e 507 922
e 507 605
e 508 848
e 508 533
e 508 593
e 509 987
e 511 588
e 511 559
e 511 881
e 512 687
e 512 599
e 512 788
e 514 955
e 514 894
e 516 939
e 516 641
e 516 859
e 517 582
e 517 587
e 517 828
e 517 545
e 519 764
e 521 801
e 521 547
e 522 662
e 523 749
e 523 766
e 523 781
e 524 775
e 524 846
e 524 881
e 525 797
e 525 885
e 527 861
e 527 600
e 527 693
e 527 854
e 528 885
e 528 978
e 528 807
e 529 620
e 529 681
e 529 560
e 530 880
e 530 676
e 530 903
e 530 848
e 530 960
e 530 636
e 531 823
e 531 919
e 533 981
e 533 634
e 533 573
e 533 854
e 533 601
e 536 763
e 536 826
e 536 894
e 536 693
e 537 557
e 537 794
e 539 947
e 539 566
e 540 860
e 541 630
e 541 778
e 542 975
e 542 849
e 544 920
e 544 676
e 545 728
e 545 776
e 546 860
e 546 772
e 546 715
e 546 573
e 547 945
e 548 936
e 548 892
e 548 565
e 548 731
e 548 915
e 549 690
e 549 869
e 549 868
e 551 769
e 551 839
e 552 757
e 552 812
e 554 881
e 554 976
e 555 880
e 555 721
e 555 577
e 555 905
e 556 929
e 558 815
e 558 623
e 559 732
e 559 647
e 560 881
e 561 713
e 561 819
e 562 697
e 562 661
e 563 716
e 565 873
e 565 747
e 565 924
e 566 569
e 567 681
e 571 714
e 571 790
e 571 598
e 571 769
e 571 932
e 573 672
e 574 716
e 574 586
e 574 669
e 577 976
e 577 971
e 577 714
e 577 819
e 578 926
e 578 675
e 578 800
e 578 843
e 579 594
e 579 707
e 580 667
e 581 806
e 582 877
e 582 864
e 584 647
e 584 698
e 584 656
e 584 868
e 586 811
e 586 772
e 588 810
e 588 804
e 589 659
e 589 853
e 591 920
e 591 882
e 591 714
e 591 671
e 593 624
e 594 975
e 594 703
e 596 846
e 596 616
e 597 656
e 597 687
e 597 912
e 597 715
e 599 800
e 600 736
e 601 930
e 601 717
e 602 771
e 602 702
e 604 610
e 604 826
e 604 800
e 605 966
e 605 668
e 605 915
e 606 872
e 606 897
e 606 651
e 606 709
e 608 688
e 608 699
e 610 880
e 613 652
e 613 854
e 613 653
e 613 714
e 615 810
e 617 734
e 617 777
e 620 854
e 622 793
e 625 730
e 625 805
e 625 739
e 630 690
e 631 647
e 631 862
e 634 656
e 635 773
e 635 743
e 635 728
e 636 957
e 637 763
e 637 849
e 638 713
e 638 678
e 638 660
e 641 735
e 643 847
e 645 705
e 645 713
e 647 827
e 647 883
e 647 869
e 647 895
e 650 750
e 651 934
e 651 854
e 651 886
e 651 713
e 652 666
e 652 913
e 654 961
e 655 800
e 656 726
e 658 850
e 658 807
e 659 844
e 659 911
e 660 699
e 660 675
e 660 749
e 661 946
e 662 824
e 663 759
e 664 996
e 666 811
e 666 971
e 667 683
e 667 696
e 667 756
e 669 793
e 669 842
e 670 932
e 670 765
e 670 786
e 671 961
e 673 698
e 673 713
e 674 961
e 674 989
e 675 772
e 675 693
e 675 973
e 675 909
e 677 856
e 677 939
e 678 868
e 682 704
e 684 696
e 684 837
e 687 885
e 687 897
e 689 981
e 689 910
e 690 776
e 690 859
e 690 999
e 690 977
e 691 822
e 691 789
e 691 949
e 694 830
e 694 779
e 695 974
e 695 932
e 695 784
e 695 923
e 695 836
e 696 782
e 697 798
e 699 766
e 699 733
e 699 823
e 700 910
e 702 885
e 703 849
e 704 783
e 705 894
e 705 835
e 706 790
e 706 975
e 707 809
e 709 881
e 710 739
e 710 963
e 711 761
e 712 784
e 712 814
e 713 775
e 713 763
e 715 805
e 716 885
e 716 734
e 721 792
e 724 884
e 726 809
e 728 910
e 729 864
e 730 839
e 731 925
e 732 850
e 732 798
e 733 922
e 733 788
e 734 961
e 736 810
e 737 880
e 737 914
e 738 822
e 738 780
e 740 870
e 742 899
e 742 897
e 743 984
e 745 800
e 745 758
e 749 896
e 749 998
e 750 771
e 750 906
e 751 926
e 754 835
e 756 848
e 758 883
e 758 838
e 761 770
e 761 767
e 761 883
e 761 999
e 762 987
e 762 976
e 763 943
e 763 772
e 763 905
e 764 790
e 767 915
e 767 911
e 769 842
e 770 863
e 770 878
e 771 856
e 772 915
e 773 998
e 773 778
e 774 790
e 774 860
e 775 780
e 776 882
e 777 918
e 777 900
e 779 950
e 780 952
e 782 823
e 784 894
e 785 909
e 785 976
e 787 812
e 787 842
e 788 905
e 789 961
e 789 877
e 791 899
e 793 851
e 794 873
e 796 998
e 801 901
e 802 993
e 804 904
e 807 985
e 807 975
e 809 895
e 810 882
e 812 911
e 813 952
e 813 898
e 813 958
e 814 899
e 819 867
e 823 826
e 824 861
e 826 882
e 827 906
e 828 985
e 829 877
e 829 919
e 830 952
e 831 978
e 835 923
e 836 862
e 836 992
e 836 974
e 837 973
e 843 955
e 844 966
e 845 966
e 846 878
e 846 899
e 846 929
e 848 934
e 848 967
e 849 975
e 850 892
e 855 933
e 856 948
e 859 911
e 863 953
e 863 913
e 865 872
e 867 871
e 869 898
e 869 958
e 870 980
e 871 946
e 874 993
e 877 985
e 884 892
e 886 905
e 891 960
e 891 939
e 897 985
e 898 941
e 904 949
e 905 936
e 905 961
e 911 989
e 911 955
e 912 981
e 912 952
e 914 999
e 916 953
e 918 947
e 920 985
e 923 963
e 934 952
e 936 975
e 961 981
e 966 977
e 992 999
