txt_Ins/graph-1000-736.txt
n 1000
e 0 348
e 0 323
e 0 687
e 0 480
e 0 408
e 0 56
e 0 552
e 0 396
e 0 20
e 0 86
e 1 864
e 1 577
e 1 949
e 1 63
e 1 495
e 1 322
e 1 257
e 2 870
e 2 208
e 2 956
e 2 428
e 3 462
e 3 447
e 3 167
e 4 208
e 4 138
e 4 800
e 4 772
e 5 862
e 5 779
e 5 157
e 5 591
e 5 598
e 5 938
e 7 947
e 7 629
e 7 646
e 7 37
e 7 899
e 9 318
e 9 432
e 9 72
e 9 596
e 9 290
e 9 535
e 9 806
e 11 942
e 11 813
e 11 638
e 11 201
e 12 331
e 12 634
e 12 639
e 12 370
e 12 735
e 12 725
e 12 149
e 13 218
e 13 302
e 13 662
e 13 443
e 13 504
e 14 992
e 14 551
e 14 872
e 14 373
e 15 476
e 15 165
e 15 276
e 15 594
e 15 254
e 15 736
e 16 568
e 16 654
e 16 301
e 16 142
e 16 170
e 16 297
e 17 939
e 17 196
e 17 557
e 17 746
e 17 356
e 19 823
e 19 898
e 19 475
e 19 560
e 19 904
e 19 450
e 20 532
e 20 205
e 20 82
e 20 911
e 20 369
e 21 211
e 21 260
e 21 356
e 21 174
e 23 706
e 23 779
e 23 430
e 23 872
e 23 232
e 23 827
e 24 900
e 24 375
e 24 564
e 25 572
e 25 991
e 25 742
e 25 199
e 27 190
e 27 663
e 27 988
e 32 957
e 32 515
e 32 668
e 34 189
e 34 758
e 34 911
e 34 157
e 35 218
e 35 528
e 35 830
e 36 116
e 36 837
e 36 607
e 36 991
e 36 720
e 36 536
e 37 562
e 37 390
e 37 368
e 37 702
e 37 204
e 38 229
e 38 669
e 38 801
e 38 983
e 38 550
e 38 514
e 38 676
e 40 890
e 40 135
e 40 228
e 40 502
e 41 330
e 41 786
e 41 721
e 42 796
e 42 215
e 42 133
e 42 471
e 43 730
e 43 919
e 43 910
e 43 568
e 43 479
e 44 666
e 44 301
e 44 390
e 45 823
e 45 735
e 45 170
e 45 720
e 46 766
e 46 323
e 46 769
e 46 975
e 46 822
e 48 484
e 48 775
e 48 377
e 50 601
e 50 288
e 50 167
e 50 769
e 50 654
e 50 976
e 52 75
e 52 387
e 52 490
e 52 354
e 52 730
e 52 675
e 52 789
e 54 406
e 54 922
e 54 69
e 54 354
e 55 360
e 55 890
e 55 530
e 56 913
e 56 983
e 56 288
e 56 565
e 56 86
e 56 190
e 60 73
e 60 761
e 60 912
e 61 667
e 61 455
e 61 167
e 61 64
e 61 502
e 61 784
e 61 928
e 62 177
e 62 541
e 62 849
e 62 979
e 62 614
e 63 276
e 63 326
e 63 673
e 63 240
e 63 520
e 63 345
e 64 473
e 64 896
e 65 101
e 65 623
e 65 713
e 65 862
e 67 166
e 67 366
e 67 88
e 68 200
e 68 813
e 68 737
e 69 805
e 69 896
e 69 947
e 70 85
e 70 362
e 70 218
e 70 547
e 71 595
e 71 306
e 71 723
e 71 323
e 72 653
e 72 671
e 72 755
e 73 570
e 73 497
e 73 268
e 75 789
e 75 761
e 75 179
e 75 632
e 75 226
e 77 861
e 77 846
e 77 362
e 77 256
e 78 365
e 78 230
e 78 442
e 78 112
e 78 227
e 78 153
e 79 757
e 79 243
e 79 919
e 79 267
e 80 714
e 80 692
e 80 194
e 81 300
e 81 734
e 81 514
e 81 478
e 81 612
e 82 728
e 82 945
e 82 846
e 84 633
e 84 528
e 84 229
e 85 363
e 85 205
e 86 257
e 86 442
e 86 410
e 86 997
e 86 675
e 87 474
e 87 400
e 87 317
e 87 721
e 87 508
e 88 564
e 88 299
e 88 697
e 91 526
e 91 842
e 91 699
e 92 539
e 92 730
e 92 108
e 92 228
e 92 94
e 93 706
e 93 463
e 93 748
e 94 764
e 94 716
e 94 491
e 94 341
e 94 995
e 95 974
e 95 585
e 95 154
e 95 363
e 96 578
e 96 615
e 96 663
e 97 799
e 97 543
e 97 353
e 97 514
e 98 521
e 98 630
e 98 301
e 100 501
e 100 850
e 100 966
e 101 206
e 101 543
e 102 300
e 102 471
e 102 772
e 102 637
e 103 197
e 103 118
e 103 951
e 105 331
e 105 230
e 105 881
e 105 203
e 105 133
e 105 406
e 106 838
e 106 510
e 106 357
e 106 609
e 106 860
e 106 273
e 108 871
e 108 730
e 108 806
e 108 153
e 109 367
e 109 319
e 109 339
e 109 554
e 110 871
e 110 199
e 110 745
e 110 591
e 111 986
e 111 130
e 111 180
e 112 148
e 112 841
e 112 276
e 116 352
e 116 196
e 116 897
e 116 980
e 116 902
e 116 932
e 118 470
e 118 947
e 118 844
e 118 471
e 119 832
e 119 836
e 119 387
e 120 946
e 120 806
e 120 716
e 120 241
e 120 389
e 120 945
e 120 748
e 120 623
e 121 177
e 121 331
e 121 986
e 121 980
e 122 830
e 122 634
e 122 447
e 127 670
e 127 925
e 127 467
e 127 738
e 130 390
e 130 793
e 130 561
e 130 911
e 130 797
e 133 995
e 133 552
e 133 750
e 133 826
e 134 774
e 134 959
e 134 634
e 134 587
e 134 178
e 135 289
e 135 863
e 135 642
e 135 915
e 135 429
e 135 555
e 135 318
e 136 232
e 136 683
e 136 780
e 137 241
e 137 402
e 137 333
e 138 310
e 138 410
e 141 699
e 141 538
e 141 890
e 141 616
e 142 231
e 142 695
e 142 157
e 142 883
e 142 674
e 142 405
e 142 614
e 143 673
e 143 660
e 143 756
e 143 929
e 144 737
e 144 841
e 144 350
e 144 273
e 145 351
e 145 921
e 145 565
e 145 590
e 145 893
e 145 689
e 146 366
e 146 344
e 146 745
e 147 810
e 147 165
e 147 711
e 147 265
e 148 385
e 148 165
e 148 621
e 149 258
e 149 523
e 149 222
e 152 349
e 152 976
e 152 988
e 152 968
e 152 728
e 153 206
e 153 652
e 153 590
e 154 821
e 154 969
e 154 490
e 155 752
e 155 850
e 155 715
e 155 521
e 156 651
e 156 495
e 156 441
e 157 988
e 159 192
e 159 782
e 159 669
e 159 580
e 160 182
e 160 339
e 160 300
e 162 175
e 162 849
e 162 510
e 164 488
e 164 250
e 164 458
e 164 188
e 165 456
e 165 276
e 166 238
e 166 715
e 166 800
e 166 841
e 167 669
e 167 477
e 167 265
e 167 756
e 169 445
e 169 814
e 169 470
e 170 231
e 170 933
e 170 818
e 170 211
e 171 708
e 171 758
e 171 205
e 171 812
e 174 803
e 174 757
e 174 681
e 174 863
e 175 443
e 175 491
e 175 644
e 176 275
e 176 992
e 176 389
e 177 708
e 177 980
e 178 843
e 178 198
e 178 416
e 178 914
e 179 556
e 179 379
e 179 750
e 179 274
e 179 561
e 179 219
e 180 639
e 180 763
e 180 314
e 180 379
e 182 412
e 182 539
e 182 844
e 182 363
e 182 438
e 182 592
e 184 238
e 184 660
e 184 362
e 185 277
e 185 255
e 185 314
e 185 795
e 185 392
e 186 450
e 186 402
e 186 960
e 188 404
e 188 207
e 189 873
e 189 511
e 189 212
e 189 638
e 190 193
e 190 573
e 190 355
e 190 436
e 190 823
e 190 677
e 190 597
e 191 864
e 191 552
e 191 752
e 191 681
e 191 224
e 192 948
e 192 267
e 192 732
e 193 614
e 193 262
e 193 536
e 193 780
e 194 952
e 194 895
e 194 797
e 196 579
e 196 915
e 196 804
e 196 962
e 196 639
e 197 725
e 197 835
e 197 637
e 198 869
e 198 200
e 199 459
e 199 368
e 199 832
e 200 805
e 200 515
e 200 698
e 201 517
e 201 885
e 201 204
e 201 306
e 203 866
e 203 485
e 203 264
e 204 689
e 204 433
e 204 924
e 204 578
e 204 694
e 204 267
e 205 585
e 205 472
e 206 461
e 206 445
e 206 330
e 206 812
e 206 552
e 207 940
e 207 766
e 207 900
e 207 986
e 207 268
e 208 946
e 208 350
e 208 263
e 208 399
e 208 697
e 209 506
e 209 419
e 209 661
e 209 266
e 209 375
e 210 371
e 210 266
e 210 373
e 210 834
e 211 680
e 212 554
e 212 634
e 214 923
e 214 442
e 214 538
e 214 572
e 215 475
e 215 576
e 215 939
e 215 254
e 215 925
e 215 621
e 215 532
e 216 630
e 216 721
e 216 893
e 216 422
e 216 946
e 217 861
e 217 299
e 217 986
e 217 580
e 218 609
e 219 443
e 219 559
e 219 528
e 219 297
e 219 932
e 220 511
e 220 854
e 220 859
e 220 832
e 220 951
e 220 671
e 222 769
e 222 545
e 222 355
e 222 391
e 223 337
e 223 411
e 223 782
e 223 884
e 224 860
e 224 597
e 226 584
e 226 543
e 226 682
e 226 508
e 227 845
e 227 249
e 227 482
e 228 578
e 229 777
e 229 973
e 230 276
e 230 529
e 230 371
e 231 770
e 231 368
e 231 671
e 231 427
e 231 305
e 232 457
e 232 355
e 232 849
e 232 634
e 234 925
e 234 988
e 234 829
e 235 249
e 235 504
e 235 895
e 235 511
e 236 977
e 236 813
e 236 939
e 236 356
e 236 377
e 237 281
e 237 897
e 237 367
e 237 870
e 237 770
e 238 508
e 238 524
e 238 977
e 238 642
e 238 975
e 239 363
e 239 725
e 239 821
e 239 915
e 239 532
e 239 753
e 239 785
e 240 883
e 240 837
e 240 576
e 241 869
e 241 787
e 241 703
e 241 436
e 242 510
e 242 555
e 242 322
e 242 896
e 242 530
e 242 301
e 243 474
e 243 353
e 243 319
e 243 969
e 244 429
e 244 324
e 244 515
e 244 614
e 248 871
e 248 668
e 248 615
e 248 494
e 248 859
e 249 898
e 249 518
e 249 271
e 249 822
e 249 635
e 249 501
e 250 591
e 250 587
e 253 877
e 253 259
e 253 375
e 253 327
e 254 741
e 254 616
e 254 800
e 254 661
e 254 486
e 255 423
e 255 924
e 255 998
e 255 432
e 256 804
e 256 257
e 256 408
e 256 595
e 257 810
e 257 313
e 258 305
e 258 711
e 258 271
e 259 427
e 259 518
e 260 899
e 260 511
e 260 596
e 260 811
e 261 672
e 261 520
e 261 496
e 261 289
e 262 765
e 262 349
e 262 701
e 263 588
e 263 288
e 263 814
e 264 836
e 264 902
e 264 830
e 265 494
e 265 477
e 265 894
e 266 884
e 266 446
e 266 590
e 266 828
e 266 826
e 266 470
e 267 732
e 267 354
e 267 939
e 267 682
e 268 506
e 268 801
e 268 988
e 268 830
e 269 962
e 269 658
e 269 332
e 269 884
e 269 471
e 269 830
e 269 287
e 271 682
e 271 502
e 271 799
e 272 975
e 272 973
e 272 524
e 272 551
e 273 923
e 273 327
e 273 959
e 274 944
e 274 332
e 274 623
e 274 536
e 274 457
e 275 360
e 275 771
e 276 624
e 276 728
e 276 405
e 277 696
e 277 300
e 277 522
e 279 465
e 279 293
e 279 560
e 281 765
e 281 630
e 281 460
e 281 399
e 282 402
e 282 370
e 282 595
e 284 677
e 284 322
e 284 975
e 284 977
e 284 837
e 284 350
e 285 884
e 285 879
e 285 524
e 286 778
e 286 670
e 286 496
e 287 299
e 287 949
e 287 505
e 288 852
e 288 561
e 288 523
e 288 594
e 289 342
e 289 767
e 289 633
e 289 830
e 289 484
e 290 435
e 290 675
e 290 293
e 290 514
e 290 891
e 290 635
e 292 909
e 292 868
e 292 790
e 292 585
e 292 691
e 292 590
e 293 377
e 294 475
e 294 653
e 294 351
e 294 566
e 294 778
e 295 527
e 295 350
e 295 659
e 295 335
e 297 836
e 297 524
e 299 358
e 300 781
e 302 935
e 302 796
e 304 490
e 304 771
e 304 970
e 304 710
e 304 721
e 304 877
e 304 336
e 305 630
e 305 543
e 306 841
e 307 581
e 307 502
e 307 359
e 307 897
e 307 790
e 308 376
e 308 693
e 308 868
e 308 946
e 308 871
e 310 594
e 310 737
e 310 764
e 313 522
e 313 515
e 314 603
e 314 441
e 317 357
e 317 546
e 317 682
e 318 485
e 318 454
e 318 601
e 319 969
e 319 373
e 319 947
e 319 511
e 322 584
e 322 494
e 322 708
e 322 895
e 323 541
e 323 956
e 324 753
e 324 940
e 324 797
e 326 499
e 326 871
e 326 636
e 326 351
e 327 932
e 327 908
e 328 848
e 328 513
e 328 559
e 330 966
e 330 444
e 330 705
e 331 775
e 331 561
e 331 741
e 331 435
e 331 827
e 332 669
e 332 942
e 332 352
e 332 458
e 332 507
e 332 923
e 333 872
e 333 866
e 333 696
e 334 366
e 334 835
e 334 486
e 334 790
e 334 467
e 334 558
e 335 730
e 335 489
e 335 790
e 336 830
e 336 752
e 337 471
e 337 784
e 337 353
e 339 799
e 339 885
e 339 365
e 339 373
e 339 676
e 341 615
e 341 488
e 341 662
e 342 882
e 342 919
e 342 504
e 343 946
e 343 957
e 343 570
e 344 473
e 344 765
e 344 470
e 344 621
e 344 493
e 345 785
e 345 968
e 348 931
e 348 557
e 348 791
e 348 599
e 348 458
e 349 778
e 349 921
e 349 435
e 350 652
e 350 480
e 351 408
e 352 644
e 353 750
e 353 463
e 355 520
e 355 905
e 355 513
e 356 687
e 357 808
e 357 572
e 357 651
e 358 779
e 358 387
e 359 867
e 359 938
e 359 828
e 360 477
e 360 791
e 362 623
e 363 367
e 363 491
e 365 376
e 365 800
e 365 402
e 366 543
e 366 671
e 366 397
e 367 908
e 369 795
e 369 778
e 369 594
e 369 744
e 369 736
e 370 689
e 370 796
e 370 883
e 370 388
e 371 520
e 371 489
e 372 444
e 372 775
e 372 909
e 373 661
e 373 391
e 373 800
e 373 940
e 375 761
e 375 897
e 375 914
e 376 496
e 376 706
e 376 849
e 376 854
e 376 837
e 376 847
e 376 781
e 376 680
e 377 988
e 377 417
e 377 773
e 377 527
e 377 619
e 377 928
e 379 566
e 379 578
e 379 502
e 381 715
e 381 894
e 381 458
e 381 861
e 382 396
e 382 835
e 382 416
e 382 478
e 382 437
e 383 965
e 383 960
e 383 561
e 384 588
e 384 408
e 384 919
e 385 872
e 385 649
e 385 420
e 387 847
e 387 797
e 388 389
e 388 736
e 389 871
e 389 970
e 389 517
e 389 835
e 389 944
e 390 417
e 390 404
e 391 697
e 391 873
e 391 564
e 391 586
e 392 435
e 392 870
e 396 879
e 396 579
e 396 657
e 396 410
e 397 451
e 397 872
e 399 566
e 400 553
e 400 810
e 400 601
e 402 925
e 402 880
e 402 543
e 402 657
e 402 632
e 404 524
e 404 709
e 405 769
e 405 790
e 405 450
e 406 768
e 408 593
e 408 419
e 408 705
e 408 968
e 409 810
e 409 622
e 409 808
e 409 898
e 409 674
e 409 601
e 410 493
e 410 919
e 410 976
e 410 677
e 411 891
e 411 586
e 411 938
e 412 781
e 412 451
e 412 578
e 416 866
e 416 914
e 416 480
e 416 750
e 416 687
e 417 486
e 417 805
e 419 810
e 420 894
e 420 739
e 420 756
e 421 805
e 421 552
e 421 451
e 422 600
e 422 590
e 422 789
e 422 972
e 423 903
e 423 979
e 424 746
e 424 650
e 424 879
e 424 669
e 424 945
e 427 769
e 428 501
e 428 931
e 428 485
e 429 433
e 429 666
e 429 748
e 429 609
e 430 729
e 430 688
e 432 691
e 432 669
e 433 584
e 433 701
e 433 735
e 433 710
e 433 438
e 433 896
e 434 553
e 434 594
e 434 597
e 435 928
e 435 776
e 436 457
e 436 482
e 436 952
e 437 459
e 437 773
e 438 667
e 438 441
e 438 767
e 438 795
e 438 691
e 441 935
e 441 682
e 442 745
e 442 965
e 442 477
e 442 550
e 443 868
e 443 560
e 444 576
e 444 660
e 444 896
e 444 787
e 445 674
e 445 597
e 445 814
e 445 836
e 445 452
e 445 624
e 445 667
e 445 741
e 446 666
e 446 826
e 447 734
e 448 909
e 448 484
e 448 560
e 450 592
e 451 638
e 452 598
e 452 984
e 454 890
e 454 622
e 454 598
e 455 677
e 455 658
e 455 921
e 455 890
e 456 599
e 456 583
e 457 663
e 458 694
e 459 821
e 459 603
e 459 850
e 459 984
e 459 540
e 460 599
e 460 942
e 460 555
e 460 669
e 460 681
e 461 912
e 461 473
e 462 932
e 462 861
e 462 557
e 463 654
e 463 650
e 463 895
e 465 480
e 465 738
e 465 862
e 467 507
e 470 767
e 470 849
e 471 668
e 472 744
e 472 778
e 472 477
e 472 827
e 473 646
e 473 598
e 474 595
e 476 910
e 476 556
e 476 804
e 477 781
e 477 657
e 477 818
e 477 541
e 478 544
e 478 564
e 478 929
e 479 779
e 479 562
e 480 876
e 482 917
e 482 845
e 482 661
e 482 968
e 484 852
e 484 637
e 486 652
e 486 850
e 486 770
e 486 731
e 486 787
e 488 846
e 488 590
e 488 977
e 489 577
e 489 730
e 489 665
e 490 723
e 490 677
e 493 742
e 493 517
e 493 847
e 493 844
e 493 632
e 494 917
e 495 862
e 495 746
e 496 704
e 497 558
e 497 867
e 497 746
e 497 739
e 499 668
e 499 966
e 499 669
e 501 826
e 502 530
e 504 918
e 504 640
e 505 841
e 505 649
e 506 921
e 506 604
e 507 847
e 507 532
e 507 592
e 508 986
e 510 587
e 510 558
e 510 880
e 511 686
e 511 598
e 511 787
e 513 954
e 513 893
e 515 938
e 515 640
e 515 858
e 516 581
e 516 586
e 516 827
e 516 544
e 518 763
e 520 800
e 520 546
e 521 661
e 522 748
e 522 765
e 522 780
e 523 774
e 523 845
e 523 880
e 524 796
e 524 884
e 526 860
e 526 599
e 526 692
e 526 853
e 527 884
e 527 977
e 527 806
e 528 619
e 528 680
e 528 559
e 529 879
e 529 675
e 529 902
e 529 847
e 529 959
e 529 635
e 530 822
e 530 918
e 532 980
e 532 633
e 532 572
e 532 853
e 532 600
e 535 762
e 535 825
e 535 893
e 535 692
e 536 556
e 536 793
e 538 946
e 538 565
e 539 859
e 540 629
e 540 777
e 541 974
e 541 848
e 543 919
e 543 675
e 544 727
e 544 775
e 545 859
e 545 771
e 545 714
e 545 572
e 546 944
e 547 935
e 547 891
e 547 564
e 547 730
e 547 914
e 548 689
e 548 868
e 548 867
e 550 768
e 550 838
e 551 756
e 551 811
e 553 880
e 553 975
e 554 879
e 554 720
e 554 576
e 554 904
e 555 928
e 557 814
e 557 622
e 558 731
e 558 646
e 559 880
e 560 712
e 560 818
e 561 696
e 561 660
e 562 715
e 564 872
e 564 746
e 564 923
e 565 568
e 566 680
e 570 713
e 570 789
e 570 597
e 570 768
e 570 931
e 572 671
e 573 715
e 573 585
e 573 668
e 576 975
e 576 970
e 576 713
e 576 818
e 577 925
e 577 674
e 577 799
e 577 842
e 578 593
e 578 706
e 579 666
e 580 805
e 581 876
e 581 863
e 583 646
e 583 697
e 583 655
e 583 867
e 585 810
e 585 771
e 587 809
e 587 803
e 588 658
e 588 852
e 590 919
e 590 881
e 590 713
e 590 670
e 592 623
e 593 974
e 593 702
e 595 845
e 595 615
e 596 655
e 596 686
e 596 911
e 596 714
e 598 799
e 599 735
e 600 929
e 600 716
e 601 770
e 601 701
e 603 609
e 603 825
e 603 799
e 604 965
e 604 667
e 604 914
e 605 871
e 605 896
e 605 650
e 605 708
e 607 687
e 607 698
e 609 879
e 612 651
e 612 853
e 612 652
e 612 713
e 614 809
e 616 733
e 616 776
e 619 853
e 621 792
e 624 729
e 624 804
e 624 738
e 629 689
e 630 646
e 630 861
e 633 655
e 634 772
e 634 742
e 634 727
e 635 956
e 636 762
e 636 848
e 637 712
e 637 677
e 637 659
e 640 734
e 642 846
e 644 704
e 644 712
e 646 826
e 646 882
e 646 868
e 646 894
e 649 749
e 650 933
e 650 853
e 650 885
e 650 712
e 651 665
e 651 912
e 653 960
e 654 799
e 655 725
e 657 849
e 657 806
e 658 843
e 658 910
e 659 698
e 659 674
e 659 748
e 660 945
e 661 823
e 662 758
e 663 995
e 665 810
e 665 970
e 666 682
e 666 695
e 666 755
e 668 792
e 668 841
e 669 931
e 669 764
e 669 785
e 670 960
e 672 697
e 672 712
e 673 960
e 673 988
e 674 771
e 674 692
e 674 972
e 674 908
e 676 855
e 676 938
e 677 867
e 681 703
e 683 695
e 683 836
e 686 884
e 686 896
e 688 980
e 688 909
e 689 775
e 689 858
e 689 998
e 689 976
e 690 821
e 690 788
e 690 948
e 693 829
e 693 778
e 694 973
e 694 931
e 694 783
e 694 922
e 694 835
e 695 781
e 696 797
e 698 765
e 698 732
e 698 822
e 699 909
e 701 884
e 702 848
e 703 782
e 704 893
e 704 834
e 705 789
e 705 974
e 706 808
e 708 880
e 709 738
e 709 962
e 710 760
e 711 783
e 711 813
e 712 774
e 712 762
e 714 804
e 715 884
e 715 733
e 720 791
e 723 883
e 725 808
e 727 909
e 728 863
e 729 838
e 730 924
e 731 849
e 731 797
e 732 921
e 732 787
e 733 960
e 735 809
e 736 879
e 736 913
e 737 821
e 737 779
e 739 869
e 741 898
e 741 896
e 742 983
e 744 799
e 744 757
e 748 895
e 748 997
e 749 770
e 749 905
e 750 925
e 753 834
e 755 847
e 757 882
e 757 837
e 760 769
e 760 766
e 760 882
e 760 998
e 761 986
e 761 975
e 762 942
e 762 771
e 762 904
e 763 789
e 766 914
e 766 910
e 768 841
e 769 862
e 769 877
e 770 855
e 771 914
e 772 997
e 772 777
e 773 789
e 773 859
e 774 779
e 775 881
e 776 917
e 776 899
e 778 949
e 779 951
e 781 822
e 783 893
e 784 908
e 784 975
e 786 811
e 786 841
e 787 904
e 788 960
e 788 876
e 790 898
e 792 850
e 793 872
e 795 997
e 800 900
e 801 992
e 803 903
e 806 984
e 806 974
e 808 894
e 809 881
e 811 910
e 812 951
e 812 897
e 812 957
e 813 898
e 818 866
e 822 825
e 823 860
e 825 881
e 826 905
e 827 984
e 828 876
e 828 918
e 829 951
e 830 977
e 834 922
e 835 861
e 835 991
e 835 973
e 836 972
e 842 954
e 843 965
e 844 965
e 845 877
e 845 898
e 845 928
e 847 933
e 847 966
e 848 974
e 849 891
e 854 932
e 855 947
e 858 910
e 862 952
e 862 912
e 864 871
e 866 870
e 868 897
e 868 957
e 869 979
e 870 945
e 873 992
e 876 984
e 883 891
e 885 904
e 890 959
e 890 938
e 896 984
e 897 940
e 903 948
e 904 935
e 904 960
e 910 988
e 910 954
e 911 980
e 911 951
e 913 998
e 915 952
e 917 946
e 919 984
e 922 962
e 933 951
e 935 974
e 960 980
e 965 976
e 991 998
